output ((((((([show(x[i])++", " | i in points, ]++["\n"])++[show(x2[i])++", " | i in points2, ])++["\n"])++[show(x3[i])++", " | i in points3, ])++["\n"])++[show(scores[i,j])++", " | i,j in points, ])++["\n"])++[show(total_score)];
int: n = 9;
int: n2 = 15;
int: n3 = 39;
set of int: points = 1..9;
set of int: points2 = 1..15;
set of int: points3 = 1..39;
array [1..n] of int: x;
array [1..n2] of int: x2;
array [1..n3] of int: x3;
array [1..3,1..n] of int: scores;
int: total_score;
